50
150
95
90
88
87
86
83
79
78
76
75
71
70
70
68
64
63
63
61
59
58
57
57
53
52
52
49
44
40
36
36
32
29
25
23
23
22
22
20
19
19
19
17
16
11
11
7
6
5
3
2
